Running for instance ./models/c106.txt
Generating routes...
Execution time:  1.87811826667  minutes
Academic license - for non-commercial use only
Warning: constraint name "Cliente esta na rota" has a space
Optimize a model with 26 rows, 5000 columns and 33063 nonzeros
Variable types: 0 continuous, 5000 integer (0 binary)
Coefficient statistics:
  Matrix range     [1e+00, 1e+00]
  Objective range  [2e+01, 2e+02]
  Bounds range     [1e+00, 1e+00]
  RHS range        [1e+00, 2e+01]
Found heuristic solution: objective 661.7092989
Presolve removed 0 rows and 150 columns
Presolve time: 0.03s
Presolved: 26 rows, 4850 columns, 32149 nonzeros
Found heuristic solution: objective 511.0460963
Variable types: 0 continuous, 4850 integer (4850 binary)

Root relaxation: objective 2.725201e+02, 98 iterations, 0.01 seconds

    Nodes    |    Current Node    |     Objective Bounds      |     Work
 Expl Unexpl |  Obj  Depth IntInf | Incumbent    BestBd   Gap | It/Node Time

     0     0  272.52012    0   13  511.04610  272.52012  46.7%     -    0s
H    0     0                     289.0491621  272.52012  5.72%     -    0s
H    0     0                     288.3065623  272.52012  5.48%     -    0s
H    0     0                     287.1368026  272.52012  5.09%     -    0s
H    0     0                     286.3942028  272.52012  4.84%     -    0s
     0     0  274.63775    0   12  286.39420  274.63775  4.10%     -    0s
H    0     0                     282.5597279  274.63775  2.80%     -    0s
     0     0  274.63775    0   12  282.55973  274.63775  2.80%     -    0s
     0     0  274.73435    0    8  282.55973  274.73435  2.77%     -    0s
H    0     0                     280.0210855  274.73435  1.89%     -    0s
H    0     0                     277.7150513  274.73435  1.07%     -    0s
     0     0     cutoff    0       277.71505  277.71505  0.00%     -    0s

Cutting planes:
  MIR: 1
  Zero half: 2

Explored 1 nodes (174 simplex iterations) in 0.10 seconds
Thread count was 8 (of 8 available processors)

Solution count 9: 277.715 280.021 282.56 ... 555.512

Optimal solution found (tolerance 1.00e-04)
Best objective 2.777150512872e+02, best bound 2.777150512872e+02, gap 0.0000%
20 24 25 23
5 3 7 8 10 4 2
13 18 15 16 14 12
17 19 11 9
Distance: 277.715051287
Execution time:  1.88546168333  minutes
